c Sudoku solution
p cnf 729 0
198 0
218 0
242 0
275 0
325 0
349 0
397 0
438 0
455 0
464 0
479 0
511 0
588 0
624 0
632 0
648 0
693 0
737 0
744 0
814 0
823 0
851 0
886 0
895 0
839 0
847 0
685 0
535 0
413 0
916 0
715 0
931 0
312 0
952 0
868 0
872 0
722 0
928 0
778 0
562 0
358 0
182 0
492 0
791 0
543 0
945 0
165 0
141 0
221 0
446 0
661 0
481 0
427 0
526 0
619 0
594 0
577 0
676 0
559 0
657 0
117 0
129 0
267 0
371 0
296 0
289 0
136 0
366 0
756 0
987 0
384 0
173 0
154 0
253 0
234 0
333 0
974 0
783 0
999 0
769 0
963 0
